% demand
num_movements = 28;
loading_factor = [1400, 1050, 1150, 1900, 900, 1850, 950, 1950, 850, 1200, 1450, 1050, 950, 1500, 1650, 1400, 950, 1150, 1000, 1200, 1950, 1450, 1000, 1900, 950, 1900, 2000, 1850];
pickup_time = [0, 0, 0, 0, 1, 1, 1, 1, 2, 2, 2, 2, 2, 2, 4, 4, 4, 5, 6, 8, 8, 8, 8, 9, 9, 10, 10, 10];
delivery_time = [1, 2, 1, 1, 2, 2, 2, 2, 8, 5, 4, 4, 5, 4, 8, 10, 8, 8, 8, 12, 9, 9, 9, 10, 10, 11, 11, 12];

% transporter definition
total_capacity = 7000;
num_decks = 3;
capacity = [3000, 1000, 3000];

% ways out of decks
num_ways_out = 1;
paths_out = array3d(decks, ways_out, decks, [
% ways out of deck d1
2, 3, 0, 

% ways out of deck d2
3, 0, 0, 

% ways out of deck d3
0, 0, 0,	

]);

